c Random generated cnf formula, satisfiable: true
p cnf 10 50
-1 -10 -2 0
-9 4 8 0
8 -7 -1 0
-9 4 2 0
-10 -8 -6 0
-2 6 -3 0
2 9 -5 0
-7 8 5 0
-7 4 5 0
1 6 -9 0
6 -5 -10 0
-6 -2 8 0
-7 -10 -9 0
2 -1 4 0
1 -4 -3 0
8 -2 10 0
7 10 -2 0
-10 -7 -5 0
-4 -3 5 0
-9 7 4 0
4 6 -8 0
-5 -10 6 0
-6 -8 -3 0
-6 -8 10 0
-5 2 8 0
-2 9 -4 0
4 -3 6 0
-9 2 5 0
-10 7 4 0
-3 2 5 0
-7 -5 3 0
-6 -5 -2 0
-4 -1 10 0
-1 -10 8 0
7 -8 3 0
-6 3 -7 0
2 -6 -4 0
-10 9 5 0
6 -4 -5 0
8 -3 6 0
4 3 -6 0
-1 9 4 0
1 -5 -2 0
3 -2 6 0
4 -5 -2 0
2 -1 -5 0
3 -2 9 0
-7 5 -6 0
10 -4 6 0
3 -4 10 0
